NAME : sim33.62128.tour
COMMENT : Length = 62128
COMMENT : Found by LKH [Keld Helsgaun] Sun Sep 16 15:47:44 2018
TYPE : TOUR
DIMENSION : 33
TOUR_SECTION
1
13
14
18
31
2
32
27
20
4
7
23
24
25
10
9
30
17
19
8
16
29
11
22
26
28
6
3
15
33
5
12
21
-1
EOF
